1	37
2	49
3	52
4	20
5	40
6	21
7	17
8	31
9	52
10	51
11	42
12	31
13	5
14	12
15	36
16	52
17	27
18	17
19	13
20	57
21	62
22	42
23	16
24	8
25	7
26	27
27	30
28	43
29	58
30	58
31	37
32	38
33	46
34	61
35	62
36	63
37	32
38	45
39	59
40	5
41	10
42	21
43	5
44	30
45	39
46	32
47	25
48	25
49	48
50	56
51	30